(benchmark gametime
:status unknown
:logic QF_AUFBV
:extrafuns ((gtINDEX60  BitVec[32]))
:extrafuns ((gtFIELD__bitsForTID0__gtAGG____anonstruct_D_Work_4  Array[32:32]))
:extrafuns ((gtINDEX61  BitVec[32]))
:extrafuns ((gtAGG__rtDWork  BitVec[32]))
:extrafuns ((gtINDEX58  BitVec[32]))
:extrafuns ((gtINDEX59  BitVec[32]))
:extrafuns ((gtINDEX56  BitVec[32]))
:extrafuns ((gtINDEX57  BitVec[32]))
:extrafuns ((gtINDEX54  BitVec[32]))
:extrafuns ((gtINDEX55  BitVec[32]))
:extrafuns ((gtINDEX53  BitVec[32]))
:extrafuns ((gtINDEX52  BitVec[32]))
:extrafuns ((gtINDEX51  BitVec[32]))
:extrafuns ((gtINDEX50  BitVec[32]))
:extrafuns ((gtINDEX48  BitVec[32]))
:extrafuns ((gtINDEX49  BitVec[32]))
:extrafuns ((gtINDEX46  BitVec[32]))
:extrafuns ((gtINDEX47  BitVec[32]))
:extrafuns ((gtINDEX44  BitVec[32]))
:extrafuns ((gtINDEX45  BitVec[32]))
:extrafuns ((gtINDEX42  BitVec[32]))
:extrafuns ((gtINDEX43  BitVec[32]))
:extrafuns ((gtINDEX40  BitVec[32]))
:extrafuns ((gtINDEX41  BitVec[32]))
:extrafuns ((gtINDEX38  BitVec[32]))
:extrafuns ((gtINDEX39  BitVec[32]))
:extrafuns ((gtINDEX36  BitVec[32]))
:extrafuns ((gtINDEX37  BitVec[32]))
:extrafuns ((gtINDEX34  BitVec[32]))
:extrafuns ((gtINDEX35  BitVec[32]))
:extrafuns ((gtINDEX32  BitVec[32]))
:extrafuns ((gtINDEX33  BitVec[32]))
:extrafuns ((gtINDEX30  BitVec[32]))
:extrafuns ((gtINDEX31  BitVec[32]))
:extrafuns ((gtINDEX28  BitVec[32]))
:extrafuns ((gtINDEX29  BitVec[32]))
:extrafuns ((gtINDEX27  BitVec[32]))
:extrafuns ((gtINDEX26  BitVec[32]))
:extrafuns ((gtINDEX25  BitVec[32]))
:extrafuns ((gtINDEX24  BitVec[32]))
:extrafuns ((gtINDEX23  BitVec[32]))
:extrafuns ((gtINDEX22  BitVec[32]))
:extrafuns ((gtINDEX20  BitVec[32]))
:extrafuns ((gtINDEX21  BitVec[32]))
:extrafuns ((gtINDEX18  BitVec[32]))
:extrafuns ((gtINDEX19  BitVec[32]))
:extrafuns ((gtINDEX16  BitVec[32]))
:extrafuns ((gtINDEX17  BitVec[32]))
:extrafuns ((gtINDEX14  BitVec[32]))
:extrafuns ((gtINDEX15  BitVec[32]))
:extrafuns ((gtINDEX12  BitVec[32]))
:extrafuns ((gtINDEX13  BitVec[32]))
:extrafuns ((gtINDEX10  BitVec[32]))
:extrafuns ((gtINDEX11  BitVec[32]))
:extrafuns ((gtINDEX8  BitVec[32]))
:extrafuns ((gtINDEX9  BitVec[32]))
:extrafuns ((gtINDEX6  BitVec[32]))
:extrafuns ((gtINDEX7  BitVec[32]))
:extrafuns ((gtINDEX4  BitVec[32]))
:extrafuns ((gtINDEX5  BitVec[32]))
:extrafuns ((gtINDEX2  BitVec[32]))
:extrafuns ((gtINDEX3  BitVec[32]))
:extrafuns ((gtINDEX0  BitVec[32]))
:extrafuns ((gtINDEX1  BitVec[32]))
:extrafuns ((gtFIELD__is_Eng__gtAGG____anonstruct_bitsForTID0_5_1_  Array[32:1]))
:extrafuns ((gtFIELD__is_Eng__gtAGG____anonstruct_bitsForTID0_5_2_  Array[32:1]))
:extrafuns ((sf_previousEvent_1_  BitVec[32]))
:extrafuns ((sfEvent__2_  BitVec[32]))
:extrafuns ((gtFIELD__is_Eng__gtAGG____anonstruct_bitsForTID0_5  Array[32:1]))
:extrafuns ((gtFIELD__sent__gtAGG____anonstruct_D_Work_4_1_  Array[32:32]))
:extrafuns ((gtFIELD__sent__gtAGG____anonstruct_D_Work_4_2_  Array[32:32]))
:extrafuns ((gtFIELD__is_active_Eng__gtAGG____anonstruct_bitsForTID0_5  Array[32:1]))
:extrafuns ((gtFIELD__is_active_PURI__gtAGG____anonstruct_bitsForTID0_5  Array[32:1]))
:extrafuns ((sfEvent__1_  BitVec[32]))
:extrafuns ((gtFIELD__is_PVRP__gtAGG____anonstruct_bitsForTID0_5  Array[32:2]))
:extrafuns ((gtFIELD__is_active_PVRP__gtAGG____anonstruct_bitsForTID0_5  Array[32:1]))
:extrafuns ((gtFIELD__is_active_PPVARP__gtAGG____anonstruct_bitsForTID0_5  Array[32:1]))
:extrafuns ((gtFIELD__is_PLRI__gtAGG____anonstruct_bitsForTID0_5_1_  Array[32:2]))
:extrafuns ((gtFIELD__is_PLRI__gtAGG____anonstruct_bitsForTID0_5_2_  Array[32:2]))
:extrafuns ((gtFIELD__is_active_PLRI__gtAGG____anonstruct_bitsForTID0_5  Array[32:1]))
:extrafuns ((gtFIELD__is_active_PAVI__gtAGG____anonstruct_bitsForTID0_5  Array[32:1]))
:extrafuns ((sfEvent_  BitVec[32]))
:extrafuns ((gtFIELD__sent__gtAGG____anonstruct_D_Work_4  Array[32:32]))
:extrafuns ((gtFIELD__is_PLRI__gtAGG____anonstruct_bitsForTID0_5  Array[32:2]))
:extrapreds ((constraint106 ))
:extrapreds ((constraint105 ))
:extrapreds ((constraint104 ))
:extrapreds ((constraint103 ))
:extrapreds ((constraint102 ))
:extrapreds ((constraint101 ))
:extrapreds ((constraint100 ))
:extrapreds ((constraint99 ))
:extrapreds ((constraint98 ))
:extrapreds ((constraint97 ))
:extrapreds ((constraint96 ))
:extrapreds ((constraint95 ))
:extrapreds ((constraint94 ))
:extrapreds ((constraint93 ))
:extrapreds ((constraint92 ))
:extrapreds ((constraint91 ))
:extrapreds ((constraint90 ))
:extrapreds ((constraint89 ))
:extrapreds ((constraint88 ))
:extrapreds ((constraint87 ))
:extrapreds ((constraint86 ))
:extrapreds ((constraint85 ))
:extrapreds ((constraint84 ))
:extrapreds ((constraint83 ))
:extrapreds ((constraint82 ))
:extrapreds ((constraint81 ))
:extrapreds ((constraint80 ))
:extrapreds ((constraint79 ))
:extrapreds ((constraint78 ))
:extrapreds ((constraint77 ))
:extrapreds ((constraint76 ))
:extrapreds ((constraint75 ))
:extrapreds ((constraint74 ))
:extrapreds ((constraint73 ))
:extrapreds ((constraint72 ))
:extrapreds ((constraint71 ))
:extrapreds ((constraint70 ))
:extrapreds ((constraint69 ))
:extrapreds ((constraint68 ))
:extrapreds ((constraint67 ))
:extrapreds ((constraint66 ))
:extrapreds ((constraint65 ))
:extrapreds ((constraint64 ))
:extrapreds ((constraint63 ))
:extrapreds ((constraint62 ))
:extrapreds ((constraint61 ))
:extrapreds ((constraint60 ))
:extrapreds ((constraint59 ))
:extrapreds ((constraint58 ))
:extrapreds ((constraint57 ))
:extrapreds ((constraint56 ))
:extrapreds ((constraint55 ))
:extrapreds ((constraint54 ))
:extrapreds ((constraint53 ))
:extrapreds ((constraint52 ))
:extrapreds ((constraint51 ))
:extrapreds ((constraint50 ))
:extrapreds ((constraint49 ))
:extrapreds ((constraint48 ))
:extrapreds ((constraint47 ))
:extrapreds ((constraint46 ))
:extrapreds ((constraint45 ))
:extrapreds ((constraint44 ))
:extrapreds ((constraint43 ))
:extrapreds ((constraint42 ))
:extrapreds ((constraint41 ))
:extrapreds ((constraint40 ))
:extrapreds ((constraint39 ))
:extrapreds ((constraint38 ))
:extrapreds ((constraint37 ))
:extrapreds ((constraint36 ))
:extrapreds ((constraint35 ))
:extrapreds ((constraint34 ))
:extrapreds ((constraint33 ))
:extrapreds ((constraint32 ))
:extrapreds ((constraint31 ))
:extrapreds ((constraint30 ))
:extrapreds ((constraint29 ))
:extrapreds ((constraint28 ))
:extrapreds ((constraint27 ))
:extrapreds ((constraint26 ))
:extrapreds ((constraint25 ))
:extrapreds ((constraint24 ))
:extrapreds ((constraint23 ))
:extrapreds ((constraint22 ))
:extrapreds ((constraint21 ))
:extrapreds ((constraint20 ))
:extrapreds ((constraint19 ))
:extrapreds ((constraint18 ))
:extrapreds ((constraint17 ))
:extrapreds ((constraint16 ))
:extrapreds ((constraint15 ))
:extrapreds ((constraint14 ))
:extrapreds ((constraint13 ))
:extrapreds ((constraint12 ))
:extrapreds ((constraint11 ))
:extrapreds ((constraint10 ))
:extrapreds ((constraint9 ))
:extrapreds ((constraint8 ))
:extrapreds ((constraint7 ))
:extrapreds ((constraint6 ))
:extrapreds ((constraint5 ))
:extrapreds ((constraint4 ))
:extrapreds ((constraint3 ))
:extrapreds ((constraint2 ))
:extrapreds ((constraint1 ))
:extrapreds ((constraint0 ))
:formula
(flet ($x557 (and constraint0 constraint1 constraint2 constraint3 constraint4 constraint5 constraint6 constraint7 constraint8 constraint9 constraint10 constraint11 constraint12 constraint13 constraint14 constraint15 constraint16 constraint17 constraint18 constraint19 constraint20 constraint21 constraint22 constraint23 constraint24 constraint25 constraint26 constraint27 constraint28 constraint29 constraint30 constraint31 constraint32 constraint33 constraint34 constraint35 constraint36 constraint37 constraint38 constraint39 constraint40 constraint41 constraint42 constraint43 constraint44 constraint45 constraint46 constraint47 constraint48 constraint49 constraint50 constraint51 constraint52 constraint53 constraint54 constraint55 constraint56 constraint57 constraint58 constraint59 constraint60 constraint61 constraint62 constraint63 constraint64 constraint65 constraint66 constraint67 constraint68 constraint69 constraint70 constraint71 constraint72 constraint73 constraint74 constraint75 constraint76 constraint77 constraint78 constraint79 constraint80 constraint81 constraint82 constraint83 constraint84 constraint85 constraint86 constraint87 constraint88 constraint89 constraint90 constraint91 constraint92 constraint93 constraint94 constraint95 constraint96 constraint97 constraint98 constraint99 constraint100 constraint101 constraint102 constraint103 constraint104 constraint105 constraint106))
(flet ($x341 (= gtINDEX61 (select gtFIELD__bitsForTID0__gtAGG____anonstruct_D_Work_4 gtINDEX60)))
(flet ($x337 (= gtINDEX59 (select gtFIELD__bitsForTID0__gtAGG____anonstruct_D_Work_4 gtINDEX58)))
(flet ($x333 (= gtINDEX57 (select gtFIELD__bitsForTID0__gtAGG____anonstruct_D_Work_4 gtINDEX56)))
(flet ($x329 (= gtINDEX55 (select gtFIELD__bitsForTID0__gtAGG____anonstruct_D_Work_4 gtINDEX54)))
(flet ($x321 (= gtINDEX49 (select gtFIELD__bitsForTID0__gtAGG____anonstruct_D_Work_4 gtINDEX48)))
(flet ($x317 (= gtINDEX47 (select gtFIELD__bitsForTID0__gtAGG____anonstruct_D_Work_4 gtINDEX46)))
(flet ($x313 (= gtINDEX45 (select gtFIELD__bitsForTID0__gtAGG____anonstruct_D_Work_4 gtINDEX44)))
(flet ($x309 (= gtINDEX43 (select gtFIELD__bitsForTID0__gtAGG____anonstruct_D_Work_4 gtINDEX42)))
(flet ($x305 (= gtINDEX41 (select gtFIELD__bitsForTID0__gtAGG____anonstruct_D_Work_4 gtINDEX40)))
(flet ($x301 (= gtINDEX39 (select gtFIELD__bitsForTID0__gtAGG____anonstruct_D_Work_4 gtINDEX38)))
(flet ($x297 (= gtINDEX37 (select gtFIELD__bitsForTID0__gtAGG____anonstruct_D_Work_4 gtINDEX36)))
(flet ($x293 (= gtINDEX35 (select gtFIELD__bitsForTID0__gtAGG____anonstruct_D_Work_4 gtINDEX34)))
(flet ($x289 (= gtINDEX33 (select gtFIELD__bitsForTID0__gtAGG____anonstruct_D_Work_4 gtINDEX32)))
(flet ($x285 (= gtINDEX31 (select gtFIELD__bitsForTID0__gtAGG____anonstruct_D_Work_4 gtINDEX30)))
(flet ($x281 (= gtINDEX29 (select gtFIELD__bitsForTID0__gtAGG____anonstruct_D_Work_4 gtINDEX28)))
(flet ($x271 (= gtINDEX21 (select gtFIELD__bitsForTID0__gtAGG____anonstruct_D_Work_4 gtINDEX20)))
(flet ($x267 (= gtINDEX19 (select gtFIELD__bitsForTID0__gtAGG____anonstruct_D_Work_4 gtINDEX18)))
(flet ($x263 (= gtINDEX17 (select gtFIELD__bitsForTID0__gtAGG____anonstruct_D_Work_4 gtINDEX16)))
(flet ($x259 (= gtINDEX15 (select gtFIELD__bitsForTID0__gtAGG____anonstruct_D_Work_4 gtINDEX14)))
(flet ($x255 (= gtINDEX13 (select gtFIELD__bitsForTID0__gtAGG____anonstruct_D_Work_4 gtINDEX12)))
(flet ($x251 (= gtINDEX11 (select gtFIELD__bitsForTID0__gtAGG____anonstruct_D_Work_4 gtINDEX10)))
(flet ($x247 (= gtINDEX9 (select gtFIELD__bitsForTID0__gtAGG____anonstruct_D_Work_4 gtINDEX8)))
(flet ($x243 (= gtINDEX7 (select gtFIELD__bitsForTID0__gtAGG____anonstruct_D_Work_4 gtINDEX6)))
(flet ($x239 (= gtINDEX5 (select gtFIELD__bitsForTID0__gtAGG____anonstruct_D_Work_4 gtINDEX4)))
(flet ($x235 (= gtINDEX3 (select gtFIELD__bitsForTID0__gtAGG____anonstruct_D_Work_4 gtINDEX2)))
(flet ($x231 (= gtINDEX1 (select gtFIELD__bitsForTID0__gtAGG____anonstruct_D_Work_4 gtINDEX0)))
(let (?x215 (extract[0:0] bv1[32]))
(let (?x225 (store gtFIELD__is_Eng__gtAGG____anonstruct_bitsForTID0_5_1_ gtINDEX61 ?x215))
(flet ($x431 (iff constraint44 (= gtFIELD__is_Eng__gtAGG____anonstruct_bitsForTID0_5_2_ ?x225)))
(let (?x221 (select gtFIELD__is_Eng__gtAGG____anonstruct_bitsForTID0_5_1_ gtINDEX59))
(let (?x216 (store gtFIELD__is_Eng__gtAGG____anonstruct_bitsForTID0_5 gtINDEX57 ?x215))
(flet ($x425 (iff constraint41 (= gtFIELD__is_Eng__gtAGG____anonstruct_bitsForTID0_5_1_ ?x216)))
(let (?x212 (zero_extend[31] (select gtFIELD__is_Eng__gtAGG____anonstruct_bitsForTID0_5 gtINDEX55)))
(let (?x208 (store gtFIELD__sent__gtAGG____anonstruct_D_Work_4_1_ gtINDEX53 bv0[32]))
(flet ($x421 (iff constraint39 (= gtFIELD__sent__gtAGG____anonstruct_D_Work_4_2_ ?x208)))
(let (?x118 (bvmul bv4294967295[32] bv1[32]))
(flet ($x206 (= (select gtFIELD__sent__gtAGG____anonstruct_D_Work_4_1_ gtINDEX52) ?x118))
(flet ($x202 (= (select gtFIELD__sent__gtAGG____anonstruct_D_Work_4_1_ gtINDEX51) bv9[32]))
(flet ($x198 (= (select gtFIELD__sent__gtAGG____anonstruct_D_Work_4_1_ gtINDEX50) bv4[32]))
(let (?x194 (zero_extend[31] (select gtFIELD__is_Eng__gtAGG____anonstruct_bitsForTID0_5 gtINDEX49)))
(let (?x188 (select gtFIELD__is_active_Eng__gtAGG____anonstruct_bitsForTID0_5 gtINDEX47))
(let (?x182 (select gtFIELD__is_active_PURI__gtAGG____anonstruct_bitsForTID0_5 gtINDEX45))
(let (?x174 (select gtFIELD__is_PVRP__gtAGG____anonstruct_bitsForTID0_5 gtINDEX43))
(let (?x169 (select gtFIELD__is_active_PVRP__gtAGG____anonstruct_bitsForTID0_5 gtINDEX41))
(let (?x163 (select gtFIELD__is_active_PPVARP__gtAGG____anonstruct_bitsForTID0_5 gtINDEX39))
(let (?x68 (extract[1:0] bv0[32]))
(let (?x160 (store gtFIELD__is_PLRI__gtAGG____anonstruct_bitsForTID0_5_1_ gtINDEX37 ?x68))
(flet ($x397 (iff constraint27 (= gtFIELD__is_PLRI__gtAGG____anonstruct_bitsForTID0_5_2_ ?x160)))
(let (?x155 (select gtFIELD__is_PLRI__gtAGG____anonstruct_bitsForTID0_5_1_ gtINDEX35))
(let (?x150 (select gtFIELD__is_PLRI__gtAGG____anonstruct_bitsForTID0_5_1_ gtINDEX33))
(let (?x145 (select gtFIELD__is_active_PLRI__gtAGG____anonstruct_bitsForTID0_5 gtINDEX31))
(let (?x139 (select gtFIELD__is_active_PAVI__gtAGG____anonstruct_bitsForTID0_5 gtINDEX29))
(flet ($x130 (= gtFIELD__sent__gtAGG____anonstruct_D_Work_4_1_ (store gtFIELD__sent__gtAGG____anonstruct_D_Work_4 gtINDEX27 ?x118)))
(flet ($x127 (= (select gtFIELD__sent__gtAGG____anonstruct_D_Work_4 gtINDEX26) bv2[32]))
(flet ($x123 (= (select gtFIELD__sent__gtAGG____anonstruct_D_Work_4 gtINDEX25) bv1[32]))
(flet ($x119 (= (select gtFIELD__sent__gtAGG____anonstruct_D_Work_4 gtINDEX24) ?x118))
(flet ($x113 (= (select gtFIELD__sent__gtAGG____anonstruct_D_Work_4 gtINDEX23) bv9[32]))
(flet ($x108 (= (select gtFIELD__sent__gtAGG____anonstruct_D_Work_4 gtINDEX22) bv4[32]))
(let (?x104 (zero_extend[31] (select gtFIELD__is_Eng__gtAGG____anonstruct_bitsForTID0_5 gtINDEX21)))
(let (?x98 (select gtFIELD__is_active_Eng__gtAGG____anonstruct_bitsForTID0_5 gtINDEX19))
(let (?x92 (select gtFIELD__is_active_PURI__gtAGG____anonstruct_bitsForTID0_5 gtINDEX17))
(let (?x83 (select gtFIELD__is_PVRP__gtAGG____anonstruct_bitsForTID0_5 gtINDEX15))
(let (?x78 (select gtFIELD__is_active_PVRP__gtAGG____anonstruct_bitsForTID0_5 gtINDEX13))
(let (?x72 (select gtFIELD__is_active_PPVARP__gtAGG____anonstruct_bitsForTID0_5 gtINDEX11))
(let (?x69 (store gtFIELD__is_PLRI__gtAGG____anonstruct_bitsForTID0_5 gtINDEX9 ?x68))
(flet ($x353 (iff constraint5 (= gtFIELD__is_PLRI__gtAGG____anonstruct_bitsForTID0_5_1_ ?x69)))
(let (?x63 (zero_extend[30] (select gtFIELD__is_PLRI__gtAGG____anonstruct_bitsForTID0_5 gtINDEX7)))
(let (?x57 (zero_extend[30] (select gtFIELD__is_PLRI__gtAGG____anonstruct_bitsForTID0_5 gtINDEX5)))
(let (?x51 (select gtFIELD__is_active_PLRI__gtAGG____anonstruct_bitsForTID0_5 gtINDEX3))
(let (?x44 (select gtFIELD__is_active_PAVI__gtAGG____anonstruct_bitsForTID0_5 gtINDEX1))
(flet ($x556 (and (iff constraint0 (not (= sfEvent_ bv8[32]))) (iff constraint1 (not (not (= (zero_extend[31] ?x44) bv0[32])))) (iff constraint2 (not (= (zero_extend[31] ?x51) bv0[32]))) (iff constraint3 (not (= ?x57 bv1[32]))) (iff constraint4 (not (= ?x63 bv2[32]))) $x353 (iff constraint6 (not (not (= (zero_extend[31] ?x72) bv0[32])))) (iff constraint7 (not (= (zero_extend[31] ?x78) bv0[32]))) (iff constraint8 (= (zero_extend[30] ?x83) bv1[32])) (iff constraint9 (not (= sfEvent_ bv0[32]))) (iff constraint10 (not (= sfEvent_ bv4[32]))) (iff constraint11 (not (not (= (zero_extend[31] ?x92) bv0[32])))) (iff constraint12 (not (= (zero_extend[31] ?x98) bv0[32]))) (iff constraint13 (= ?x104 bv1[32])) (iff constraint14 (not $x108)) (iff constraint15 (not $x113)) (iff constraint16 (not $x119)) (iff constraint17 (not $x123)) (iff constraint18 $x127) (iff constraint19 $x130) (iff constraint20 (= sf_previousEvent_1_ sfEvent_)) (iff constraint21 (= sfEvent__1_ bv3[32])) (iff constraint22 (not (= sfEvent__1_ bv8[32]))) (iff constraint23 (not (not (= (zero_extend[31] ?x139) bv0[32])))) (iff constraint24 (not (= (zero_extend[31] ?x145) bv0[32]))) (iff constraint25 (not (= (zero_extend[30] ?x150) bv1[32]))) (iff constraint26 (not (= (zero_extend[30] ?x155) bv2[32]))) $x397 (iff constraint28 (not (not (= (zero_extend[31] ?x163) bv0[32])))) (iff constraint29 (not (= (zero_extend[31] ?x169) bv0[32]))) (iff constraint30 (= (zero_extend[30] ?x174) bv1[32])) (iff constraint31 (not (= sfEvent__1_ bv0[32]))) (iff constraint32 (not (= sfEvent__1_ bv4[32]))) (iff constraint33 (not (not (= (zero_extend[31] ?x182) bv0[32])))) (iff constraint34 (not (= (zero_extend[31] ?x188) bv0[32]))) (iff constraint35 (= ?x194 bv1[32])) (iff constraint36 (not $x198)) (iff constraint37 (not $x202)) (iff constraint38 $x206) $x421 (iff constraint40 (= ?x212 bv1[32])) $x425 (iff constraint42 (= sfEvent__2_ sf_previousEvent_1_)) (iff constraint43 (= (zero_extend[31] ?x221) bv1[32])) $x431 (iff constraint45 (= gtINDEX0 gtAGG__rtDWork)) (iff constraint46 $x231) (iff constraint47 (= gtINDEX2 gtAGG__rtDWork)) (iff constraint48 $x235) (iff constraint49 (= gtINDEX4 gtAGG__rtDWork)) (iff constraint50 $x239) (iff constraint51 (= gtINDEX6 gtAGG__rtDWork)) (iff constraint52 $x243) (iff constraint53 (= gtINDEX8 gtAGG__rtDWork)) (iff constraint54 $x247) (iff constraint55 (= gtINDEX10 gtAGG__rtDWork)) (iff constraint56 $x251) (iff constraint57 (= gtINDEX12 gtAGG__rtDWork)) (iff constraint58 $x255) (iff constraint59 (= gtINDEX14 gtAGG__rtDWork)) (iff constraint60 $x259) (iff constraint61 (= gtINDEX16 gtAGG__rtDWork)) (iff constraint62 $x263) (iff constraint63 (= gtINDEX18 gtAGG__rtDWork)) (iff constraint64 $x267) (iff constraint65 (= gtINDEX20 gtAGG__rtDWork)) (iff constraint66 $x271) (iff constraint67 (= gtINDEX22 gtAGG__rtDWork)) (iff constraint68 (= gtINDEX23 gtAGG__rtDWork)) (iff constraint69 (= gtINDEX24 gtAGG__rtDWork)) (iff constraint70 (= gtINDEX25 gtAGG__rtDWork)) (iff constraint71 (= gtINDEX26 gtAGG__rtDWork)) (iff constraint72 (= gtINDEX27 gtAGG__rtDWork)) (iff constraint73 (= gtINDEX28 gtAGG__rtDWork)) (iff constraint74 $x281) (iff constraint75 (= gtINDEX30 gtAGG__rtDWork)) (iff constraint76 $x285) (iff constraint77 (= gtINDEX32 gtAGG__rtDWork)) (iff constraint78 $x289) (iff constraint79 (= gtINDEX34 gtAGG__rtDWork)) (iff constraint80 $x293) (iff constraint81 (= gtINDEX36 gtAGG__rtDWork)) (iff constraint82 $x297) (iff constraint83 (= gtINDEX38 gtAGG__rtDWork)) (iff constraint84 $x301) (iff constraint85 (= gtINDEX40 gtAGG__rtDWork)) (iff constraint86 $x305) (iff constraint87 (= gtINDEX42 gtAGG__rtDWork)) (iff constraint88 $x309) (iff constraint89 (= gtINDEX44 gtAGG__rtDWork)) (iff constraint90 $x313) (iff constraint91 (= gtINDEX46 gtAGG__rtDWork)) (iff constraint92 $x317) (iff constraint93 (= gtINDEX48 gtAGG__rtDWork)) (iff constraint94 $x321) (iff constraint95 (= gtINDEX50 gtAGG__rtDWork)) (iff constraint96 (= gtINDEX51 gtAGG__rtDWork)) (iff constraint97 (= gtINDEX52 gtAGG__rtDWork)) (iff constraint98 (= gtINDEX53 gtAGG__rtDWork)) (iff constraint99 (= gtINDEX54 gtAGG__rtDWork)) (iff constraint100 $x329) (iff constraint101 (= gtINDEX56 gtAGG__rtDWork)) (iff constraint102 $x333) (iff constraint103 (= gtINDEX58 gtAGG__rtDWork)) (iff constraint104 $x337) (iff constraint105 (= gtINDEX60 gtAGG__rtDWork)) (iff constraint106 $x341)))
(and $x556 $x557)))))))))))))))))))))))))))))))))))))))))))))))))))))))))))))))))))))))))
)
